NAME : Unnamed.690.tour
COMMENT : Length = 690
COMMENT : Found by LKH [Keld Helsgaun] Tue Jan 13 16:45:19 2015
TYPE : TOUR
DIMENSION : 70
TOUR_SECTION
1
10
24
2
23
8
28
45
37
41
40
47
62
52
65
61
44
29
36
42
43
66
54
56
64
39
58
50
48
68
51
57
30
49
34
32
26
27
33
31
53
59
67
55
63
69
35
46
22
38
60
21
17
9
14
18
5
4
15
19
7
11
16
3
12
13
6
25
20
70
-1
EOF
